2025-10-11 22:04:18,558 - INFO - 📌 第一个 epoch：默认所有模块使用 checkpoint
2025-10-11 22:04:22,787 - INFO - Epoch 1 completed in 4.232739 seconds
2025-10-11 22:04:23,522 - INFO - torch.cuda.max_memory_reserved() : 1.029296875
2025-10-11 22:04:27,450 - INFO - 
[🔁 拟合反向传播时间模型]
2025-10-11 22:04:27,451 - INFO - 总反向传播时间: 3.913591s
2025-10-11 22:04:27,451 - INFO - 拟合模型: backward_total ≈ 2 × (A + B) + b
2025-10-11 22:04:27,451 - INFO - A = 2.570971, B = 0.236098, b = 1.106521s
2025-10-11 22:04:27,472 - INFO - Set parameter LicenseID to value 2706656
2025-10-11 22:04:27,477 - INFO - Set parameter LogToConsole to value 1
2025-10-11 22:04:27,477 - INFO - Set parameter LogFile to value ""
2025-10-11 22:04:27,477 - INFO - Set parameter Threads to value 12
2025-10-11 22:04:27,478 - INFO - Set parameter TimeLimit to value 3600
2025-10-11 22:04:27,478 - INFO - Set parameter OptimalityTol to value 0.0001
2025-10-11 22:04:27,478 - INFO - Set parameter IntFeasTol to value 1e-05
2025-10-11 22:04:27,478 - INFO - Set parameter StartNodeLimit to value 10000000
2025-10-11 22:04:27,543 - INFO - Set parameter TimeLimit to value 3600
2025-10-11 22:04:27,543 - INFO - 
2025-10-11 22:04:27,543 - INFO - 
2025-10-11 22:04:27,543 - INFO - Restarting solve
2025-10-11 22:04:27,543 - INFO - 
2025-10-11 22:04:27,543 - INFO - 
2025-10-11 22:04:27,545 - INFO - Gurobi Optimizer version 12.0.3 build v12.0.3rc0 (linux64 - "Ubuntu 20.04.6 LTS")
2025-10-11 22:04:27,545 - INFO - 
2025-10-11 22:04:27,545 - INFO - CPU model: Intel(R) Xeon(R) Platinum 8260 CPU @ 2.40GHz, instruction set [SSE2|AVX|AVX2|AVX512]
2025-10-11 22:04:27,545 - INFO - Thread count: 48 physical cores, 96 logical processors, using up to 12 threads
2025-10-11 22:04:27,545 - INFO - 
2025-10-11 22:04:27,545 - INFO - Non-default parameters:
2025-10-11 22:04:27,545 - INFO - TimeLimit  3600
2025-10-11 22:04:27,545 - INFO - OptimalityTol  0.0001
2025-10-11 22:04:27,545 - INFO - StartNodeLimit  10000000
2025-10-11 22:04:27,545 - INFO - Threads  12
2025-10-11 22:04:27,545 - INFO - 
2025-10-11 22:04:27,545 - INFO - Optimize a model with 5603 rows, 3584 columns and 15200 nonzeros
2025-10-11 22:04:27,545 - INFO - Model fingerprint: 0x0635e5e8
2025-10-11 22:04:27,545 - INFO - Variable types: 1024 continuous, 2560 integer (2560 binary)
2025-10-11 22:04:27,546 - INFO - Coefficient statistics:
2025-10-11 22:04:27,546 - INFO -   Matrix range     [1e+00, 3e+14]
2025-10-11 22:04:27,546 - INFO -   Objective range  [5e+04, 2e+05]
2025-10-11 22:04:27,546 - INFO -   Bounds range     [1e+00, 3e+15]
2025-10-11 22:04:27,546 - INFO -   RHS range        [1e+00, 3e+15]
2025-10-11 22:04:27,546 - INFO - Warning: Model contains large matrix coefficient range
2025-10-11 22:04:27,546 - INFO - Warning: Model contains large rhs
2025-10-11 22:04:27,546 - INFO - Warning: Model contains large bounds
2025-10-11 22:04:27,546 - INFO -          Consider reformulating model or setting NumericFocus parameter
2025-10-11 22:04:27,546 - INFO -          to avoid numerical issues.
2025-10-11 22:04:27,559 - INFO - Presolve removed 4376 rows and 2059 columns
2025-10-11 22:04:27,559 - INFO - Presolve time: 0.01s
2025-10-11 22:04:27,559 - INFO - Presolved: 1227 rows, 1525 columns, 4322 nonzeros
2025-10-11 22:04:27,560 - INFO - Variable types: 0 continuous, 1525 integer (1091 binary)
2025-10-11 22:04:27,564 - INFO - Found heuristic solution: objective 6069733.0000
2025-10-11 22:04:27,566 - INFO - Found heuristic solution: objective 5755377.0000
2025-10-11 22:04:27,571 - INFO - 
2025-10-11 22:04:27,571 - INFO - Root relaxation: objective 3.836918e+06, 428 iterations, 0.00 seconds (0.00 work units)
2025-10-11 22:04:27,576 - INFO - 
2025-10-11 22:04:27,576 - INFO -     Nodes    |    Current Node    |     Objective Bounds      |     Work
2025-10-11 22:04:27,576 - INFO -  Expl Unexpl |  Obj  Depth IntInf | Incumbent    BestBd   Gap | It/Node Time
2025-10-11 22:04:27,576 - INFO - 
2025-10-11 22:04:27,576 - INFO - *    0     0               0    3836918.0000 3836918.00  0.00%     -    0s
2025-10-11 22:04:27,578 - INFO - 
2025-10-11 22:04:27,578 - INFO - Explored 1 nodes (533 simplex iterations) in 0.03 seconds (0.02 work units)
2025-10-11 22:04:27,578 - INFO - Thread count was 12 (of 96 available processors)
2025-10-11 22:04:27,578 - INFO - 
2025-10-11 22:04:27,578 - INFO - Solution count 3: 3.83692e+06 5.75538e+06 6.06973e+06 
2025-10-11 22:04:27,578 - INFO - 
2025-10-11 22:04:27,578 - INFO - Optimal solution found (tolerance 1.00e-04)
2025-10-11 22:04:27,578 - INFO - Best objective 3.836918000000e+06, best bound 3.836918000000e+06, gap 0.0000%
2025-10-11 22:04:27,599 - INFO - 规划前的显存GB：2.5
2025-10-11 22:04:27,599 - INFO - 规划后的显存GB：2.0340452194213867
2025-10-11 22:04:27,599 - INFO - ✅ 最优策略：[1, 1, 1, 1, 1, 1, 1, 1, 1, 1, 1, 1, 1, 1, 1, 1]
2025-10-11 22:04:27,599 - INFO - 📌 checkpoint 的欧氏长度:, []
2025-10-11 22:04:27,599 - INFO - 📌 checkpoint 的余弦长度:, []
2025-10-11 22:04:27,599 - INFO - 💾 最终显存峰值：%.2f MB % 1780.8826751708984
2025-10-11 22:04:27,600 - INFO - Epoch 2 completed in 4.076611 seconds
2025-10-11 22:04:27,600 - INFO - torch.cuda.max_memory_reserved() : 1.029296875
2025-10-11 22:04:30,218 - INFO - Epoch 3 completed in 2.617516 seconds
2025-10-11 22:04:30,218 - INFO - 
====================== [第1个 Epoch 收集统计数据] ======================
2025-10-11 22:04:30,218 - INFO - 
🔍 EUCLIDEAN modules:
2025-10-11 22:04:30,218 - INFO - [Shapelet 119] forward_avg=0.002162s over 26 calls | peak=72.20MB | final=0.00MB
2025-10-11 22:04:30,218 - INFO - [Shapelet 238] forward_avg=0.001768s over 26 calls | peak=126.95MB | final=0.00MB
2025-10-11 22:04:30,218 - INFO - [Shapelet 358] forward_avg=0.001793s over 26 calls | peak=169.17MB | final=0.00MB
2025-10-11 22:04:30,218 - INFO - [Shapelet 478] forward_avg=0.001819s over 26 calls | peak=193.41MB | final=0.00MB
2025-10-11 22:04:30,218 - INFO - [Shapelet 597] forward_avg=0.001805s over 26 calls | peak=199.65MB | final=0.00MB
2025-10-11 22:04:30,219 - INFO - [Shapelet 717] forward_avg=0.001774s over 26 calls | peak=193.90MB | final=0.00MB
2025-10-11 22:04:30,219 - INFO - [Shapelet 837] forward_avg=0.001732s over 26 calls | peak=170.03MB | final=0.00MB
2025-10-11 22:04:30,219 - INFO - [Shapelet 957] forward_avg=0.001789s over 26 calls | peak=129.44MB | final=0.00MB
2025-10-11 22:04:30,219 - INFO - 
🔍 COSINE modules:
2025-10-11 22:04:30,219 - INFO - [Shapelet 119] forward_avg=0.002363s over 26 calls | peak=47.22MB | final=0.00MB
2025-10-11 22:04:30,219 - INFO - [Shapelet 238] forward_avg=0.002217s over 26 calls | peak=83.85MB | final=0.00MB
2025-10-11 22:04:30,219 - INFO - [Shapelet 358] forward_avg=0.002224s over 26 calls | peak=112.15MB | final=0.00MB
2025-10-11 22:04:30,219 - INFO - [Shapelet 478] forward_avg=0.002245s over 26 calls | peak=128.13MB | final=0.00MB
2025-10-11 22:04:30,219 - INFO - [Shapelet 597] forward_avg=0.002280s over 26 calls | peak=132.11MB | final=0.00MB
2025-10-11 22:04:30,219 - INFO - [Shapelet 717] forward_avg=0.002222s over 26 calls | peak=128.09MB | final=0.00MB
2025-10-11 22:04:30,219 - INFO - [Shapelet 837] forward_avg=0.002427s over 26 calls | peak=112.07MB | final=0.00MB
2025-10-11 22:04:30,219 - INFO - [Shapelet 957] forward_avg=0.002339s over 26 calls | peak=84.51MB | final=0.00MB
2025-10-11 22:04:30,219 - INFO - 
🔍 CROSS modules:
2025-10-11 22:04:30,219 - INFO - [Shapelet 119] forward_avg=0.000583s over 26 calls
2025-10-11 22:04:30,219 - INFO - [Shapelet 238] forward_avg=0.000526s over 26 calls
2025-10-11 22:04:30,219 - INFO - [Shapelet 358] forward_avg=0.000520s over 26 calls
2025-10-11 22:04:30,219 - INFO - [Shapelet 478] forward_avg=0.000519s over 26 calls
2025-10-11 22:04:30,219 - INFO - [Shapelet 597] forward_avg=0.000548s over 26 calls
2025-10-11 22:04:30,219 - INFO - [Shapelet 717] forward_avg=0.000574s over 26 calls
2025-10-11 22:04:30,219 - INFO - [Shapelet 837] forward_avg=0.000616s over 26 calls
2025-10-11 22:04:30,219 - INFO - [Shapelet 957] forward_avg=0.000653s over 26 calls
2025-10-11 22:04:30,219 - INFO - 
💾 模型第一次反向传播阶段的显存峰值（所有模块中的最大值）: 1798.81 MB
2025-10-11 22:04:30,219 - INFO - 
💾 模型初始显存: 5.08 MB
2025-10-11 22:04:30,219 - INFO - =======================================================================

2025-10-11 22:04:30,219 - INFO - torch.cuda.max_memory_reserved() : 1.994140625
2025-10-11 22:04:32,863 - INFO - Epoch 4 completed in 2.643197 seconds
2025-10-11 22:04:32,864 - INFO - torch.cuda.max_memory_reserved() : 1.994140625
2025-10-11 22:04:35,494 - INFO - Epoch 5 completed in 2.628794 seconds
2025-10-11 22:04:35,495 - INFO - torch.cuda.max_memory_reserved() : 1.994140625
2025-10-11 22:04:38,093 - INFO - Epoch 6 completed in 2.597912 seconds
2025-10-11 22:04:38,093 - INFO - torch.cuda.max_memory_reserved() : 1.994140625
2025-10-11 22:04:40,700 - INFO - Epoch 7 completed in 2.606269 seconds
2025-10-11 22:04:40,701 - INFO - torch.cuda.max_memory_reserved() : 1.994140625
2025-10-11 22:04:43,329 - INFO - Epoch 8 completed in 2.626512 seconds
2025-10-11 22:04:43,329 - INFO - torch.cuda.max_memory_reserved() : 1.994140625
2025-10-11 22:04:45,932 - INFO - Epoch 9 completed in 2.602746 seconds
2025-10-11 22:04:45,933 - INFO - torch.cuda.max_memory_reserved() : 1.994140625
2025-10-11 22:04:48,522 - INFO - Epoch 10 completed in 2.588709 seconds
2025-10-11 22:04:49,133 - INFO - torch.cuda.max_memory_reserved() : 1.994140625
2025-10-11 22:04:49,134 - INFO - !!!采用策略后的几个epoch 平均时间:2.6139567494392395
2025-10-11 22:04:49,134 - INFO - 



